words_hard_train/7828.qaiger
aag 30 10 0 1 20
2
4
12
14
22
26
44
46
50
52
61
6 2 5
8 3 4
10 7 9
16 13 15
18 12 14
20 17 19
24 20 22
28 24 26
30 29 19
32 11 30
34 10 31
36 33 35
38 21 27
40 38 23
42 41 29
48 45 47
54 51 53
56 48 54
58 43 56
60 36 59
i0 2 y1[7]
i1 1 x1[2]
i2 2 y1[6]
i3 1 x1[1]
i4 1 x1[0]
i5 2 y1[5]
i6 2 y1[3]
i7 2 y1[4]
i8 2 y1[1]
i9 2 y1[2]
o0 bv[0]
c
simplified
  <=
    add
      or
        1
        2 y1
      << 5
        1 x1
    1
