words_hard_train/7828.qaiger.qdimacs
p cnf 30 61
a 2 11 7 0
e 1 3 4 5 6 8 9 10 12 13 14 15 16 17 18 19 20 21 22 23 24 25 26 27 28 29 30 0
-1 2 3 0
1 -3 0
-2 -3 0
1 -2 4 0
-1 -4 0
2 -4 0
3 4 5 0
-3 -5 0
-4 -5 0
6 7 8 0
-6 -8 0
-7 -8 0
-6 -7 9 0
6 -9 0
7 -9 0
8 9 10 0
-8 -10 0
-9 -10 0
-10 -11 12 0
10 -12 0
11 -12 0
-12 -13 14 0
12 -14 0
13 -14 0
14 9 15 0
-14 -15 0
-9 -15 0
5 -15 16 0
-5 -16 0
15 -16 0
-5 15 17 0
5 -17 0
-15 -17 0
16 17 18 0
-16 -18 0
-17 -18 0
10 13 19 0
-10 -19 0
-13 -19 0
-19 11 20 0
19 -20 0
-11 -20 0
20 14 21 0
-20 -21 0
-14 -21 0
22 23 24 0
-22 -24 0
-23 -24 0
25 26 27 0
-25 -27 0
-26 -27 0
-24 -27 28 0
24 -28 0
27 -28 0
21 -28 29 0
-21 -29 0
28 -29 0
-18 29 30 0
18 -30 0
-29 -30 0
-30 0
